# Objective value = 7.6499999992339986e+02
x[0,1] 1
x[0,2] 0
x[0,3] 1
x[0,4] 0
x[0,5] 0
x[0,6] 0
x[0,7] 0
x[0,8] 0
x[0,9] 1
x[0,10] 0
x[0,11] 0
x[0,12] 1
x[0,13] 1
x[0,14] 0
x[0,15] 1
x[0,16] 0
x[0,17] 1
x[0,18] 0
x[0,19] 0
x[1,2] 0
x[1,3] 1
x[1,4] 0
x[1,5] 0
x[1,6] 0
x[1,7] 0
x[1,8] 0
x[1,9] 1
x[1,10] 0
x[1,11] 0
x[1,12] 1
x[1,13] 1
x[1,14] 0
x[1,15] 1
x[1,16] 0
x[1,17] 1
x[1,18] 0
x[1,19] 0
x[2,3] 1
x[2,4] 0
x[2,5] 0
x[2,6] 1
x[2,7] 0
x[2,8] 1
x[2,9] 1
x[2,10] 0
x[2,11] 0
x[2,12] 1
x[2,13] 1
x[2,14] 0
x[2,15] 1
x[2,16] 1
x[2,17] 1
x[2,18] 0
x[2,19] 0
x[3,4] 0
x[3,5] 0
x[3,6] 0
x[3,7] 0
x[3,8] 0
x[3,9] 1
x[3,10] 0
x[3,11] 0
x[3,12] 1
x[3,13] 1
x[3,14] 0
x[3,15] 0
x[3,16] 0
x[3,17] 0
x[3,18] 0
x[3,19] 0
x[4,5] 0
x[4,6] 1
x[4,7] 0
x[4,8] 1
x[4,9] 1
x[4,10] 0
x[4,11] 0
x[4,12] 1
x[4,13] 1
x[4,14] 0
x[4,15] 1
x[4,16] 1
x[4,17] 1
x[4,18] 0
x[4,19] 0
x[5,6] 1
x[5,7] 0
x[5,8] 1
x[5,9] 1
x[5,10] 0
x[5,11] 0
x[5,12] 1
x[5,13] 1
x[5,14] 0
x[5,15] 1
x[5,16] 1
x[5,17] 1
x[5,18] 0
x[5,19] 0
x[6,7] 0
x[6,8] 1
x[6,9] 1
x[6,10] 0
x[6,11] 0
x[6,12] 1
x[6,13] 1
x[6,14] 0
x[6,15] 1
x[6,16] 0
x[6,17] 1
x[6,18] 0
x[6,19] 0
x[7,8] 1
x[7,9] 1
x[7,10] 0
x[7,11] 0
x[7,12] 1
x[7,13] 1
x[7,14] 0
x[7,15] 1
x[7,16] 1
x[7,17] 1
x[7,18] 0
x[7,19] 0
x[8,9] 1
x[8,10] 0
x[8,11] 0
x[8,12] 1
x[8,13] 1
x[8,14] 0
x[8,15] 1
x[8,16] 0
x[8,17] 1
x[8,18] 0
x[8,19] 0
x[9,10] 0
x[9,11] 0
x[9,12] 1
x[9,13] 0
x[9,14] 0
x[9,15] 0
x[9,16] 0
x[9,17] 0
x[9,18] 0
x[9,19] 0
x[10,11] 0
x[10,12] 1
x[10,13] 1
x[10,14] 0
x[10,15] 1
x[10,16] 1
x[10,17] 1
x[10,18] 0
x[10,19] 0
x[11,12] 1
x[11,13] 1
x[11,14] 0
x[11,15] 1
x[11,16] 1
x[11,17] 1
x[11,18] 1
x[11,19] 0
x[12,13] 0
x[12,14] 0
x[12,15] 0
x[12,16] 0
x[12,17] 0
x[12,18] 0
x[12,19] 0
x[13,14] 0
x[13,15] 0
x[13,16] 0
x[13,17] 0
x[13,18] 0
x[13,19] 0
x[14,15] 1
x[14,16] 1
x[14,17] 1
x[14,18] 1
x[14,19] 1
x[15,16] 0
x[15,17] 1
x[15,18] 0
x[15,19] 0
x[16,17] 1
x[16,18] 0
x[16,19] 0
x[17,18] 0
x[17,19] 0
x[18,19] 0
s[0,0] 4.0599999999991769e+02
s[0,1] 4.3399999999991769e+02
s[0,2] 4.6699999999991769e+02
s[0,3] 4.9999999999991769e+02
s[0,4] 5.2399999999991769e+02
s[1,0] 4.3399999999991769e+02
s[1,1] 4.6699999999991769e+02
s[1,2] 4.9999999999991769e+02
s[1,3] 5.3499999999991769e+02
s[1,4] 5.5999999999991769e+02
s[2,0] 2.6299999999993952e+02
s[2,1] 2.9599999999993759e+02
s[2,2] 3.2899999999993270e+02
s[2,3] 3.6299999999992679e+02
s[2,4] 397.999999999921
s[3,0] 5.3499999999991769e+02
s[3,1] 5.7399999999991769e+02
s[3,2] 6.0299999999991769e+02
s[3,3] 6.4399999999991769e+02
s[3,4] 6.6799999999991769e+02
s[4,0] 2.3099999999994628e+02
s[4,1] 2.6299999999994566e+02
s[4,2] 2.9599999999993952e+02
s[4,3] 3.2899999999993952e+02
s[4,4] 3.5299999999993952e+02
s[5,0] 1.9599999999995310e+02
s[5,1] 2.3099999999995305e+02
s[5,2] 2.6299999999994634e+02
s[5,3] 2.9599999999993895e+02
s[5,4] 3.2099999999993111e+02
s[6,0] 3.2899999999992224e+02
s[6,1] 3.6299999999992212e+02
s[6,2] 3.9799999999991769e+02
s[6,3] 4.3399999999991405e+02
s[6,4] 456.999999999906
s[7,0] 1.6299999999995998e+02
s[7,1] 1.9599999999995873e+02
s[7,2] 2.3099999999995438e+02
s[7,3] 2.6299999999994748e+02
s[7,4] 2.8799999999994088e+02
s[8,0] 3.6299999999992212e+02
s[8,1] 3.9899999999991769e+02
s[8,2] 4.3399999999991769e+02
s[8,3] 4.6699999999991769e+02
s[8,4] 4.9099999999991769e+02
s[9,0] 6.1699999992340031e+02
s[9,1] 6.4399999992340031e+02
s[9,2] 6.7199999992340031e+02
s[9,3] 7.0999999992340031e+02
s[9,4] 745.9999999234
s[10,0] 1.2299999999996521e+02
s[10,1] 1.6299999999996407e+02
s[10,2] 1.9599999999995913e+02
s[10,3] 2.3099999999995384e+02
s[10,4] 2.5599999999994736e+02
s[11,0] 5.4999999999996845e+01
s[11,1] 9.4999999999986159e+01
s[11,2] 1.2299999999998386e+02
s[11,3] 1.6099999999997917e+02
s[11,4] 1.8599999999997459e+02
s[12,0] 6.4399999992340031e+02
s[12,1] 6.7199999992340031e+02
s[12,2] 7.1199999992340031e+02
s[12,3] 7.4699999992340020e+02
s[12,4] 755.9999999234
s[13,0] 5.7399999999991769e+02
s[13,1] 6.0399999992340031e+02
s[13,2] 6.4399999999991769e+02
s[13,3] 6.7199999992340031e+02
s[13,4] 6.9599999992340031e+02
s[14,0] 0
s[14,1] 27
s[14,2] 54
s[14,3] 95
s[14,4] 119
s[15,0] 4.6699999999991769e+02
s[15,1] 4.9999999999991769e+02
s[15,2] 5.3499999999991769e+02
s[15,3] 5.7299999999991769e+02
s[15,4] 6.0299999999991769e+02
s[16,0] 3.0199999999991712e+02
s[16,1] 3.2899999999993190e+02
s[16,2] 3.6299999999992724e+02
s[16,3] 397.999999999921
s[16,4] 4.3099999999990678e+02
s[17,0] 5.0899999999991769e+02
s[17,1] 5.3499999999991769e+02
s[17,2] 5.7399999999991769e+02
s[17,3] 6.0299999999991769e+02
s[17,4] 6.2599999999991769e+02
s[18,0] 94.9999999999757
s[18,1] 1.2299999999996837e+02
s[18,2] 1.6299999999996197e+02
s[18,3] 1.9399999999995646e+02
s[18,4] 2.1199999999995129e+02
s[19,0] 2.6999999999999659e+01
s[19,1] 5.4999999999999432e+01
s[19,2] 95
s[19,3] 1.2299999999999528e+02
s[19,4] 1.4799999999999008e+02
y[0,0] 0
y[0,1] 0
y[0,2] 0
y[0,3] 0
y[0,4] 0
y[0,5] 0
y[0,6] 0
y[0,7] 0
y[0,8] 0
y[0,9] 0
y[0,10] 0
y[0,11] 0
y[0,12] 0
y[0,13] 0
y[0,14] 0
y[0,15] 0
y[0,16] 0
y[0,17] 0
y[0,18] 0
y[0,19] 1
y[0,20] 0
y[0,21] 0
y[0,22] 0
y[0,23] 0
y[0,24] 0
y[0,25] 0
y[0,26] 0
y[0,27] 0
y[0,28] 0
y[0,29] 0
y[0,30] 0
y[0,31] 0
y[0,32] 0
y[0,33] 0
y[0,34] 0
y[0,35] 0
y[0,36] 0
y[0,37] 0
y[0,38] 0
y[0,39] 0
y[1,0] 0
y[1,1] 0
y[1,2] 0
y[1,3] 0
y[1,4] 0
y[1,5] 0
y[1,6] 0
y[1,7] 0
y[1,8] 0
y[1,9] 0
y[1,10] 0
y[1,11] 0
y[1,12] 0
y[1,13] 0
y[1,14] 0
y[1,15] 0
y[1,16] 0
y[1,17] 0
y[1,18] 0
y[1,19] 1
y[1,20] 0
y[1,21] 0
y[1,22] 0
y[1,23] 0
y[1,24] 0
y[1,25] 0
y[1,26] 0
y[1,27] 0
y[1,28] 0
y[1,29] 0
y[1,30] 0
y[1,31] 0
y[1,32] 0
y[1,33] 0
y[1,34] 0
y[1,35] 0
y[1,36] 0
y[1,37] 0
y[1,38] 0
y[1,39] 0
y[2,0] 0
y[2,1] 0
y[2,2] 0
y[2,3] 0
y[2,4] 0
y[2,5] 0
y[2,6] 0
y[2,7] 0
y[2,8] 0
y[2,9] 0
y[2,10] 0
y[2,11] 0
y[2,12] 0
y[2,13] 0
y[2,14] 0
y[2,15] 0
y[2,16] 0
y[2,17] 0
y[2,18] 0
y[2,19] 1
y[2,20] 0
y[2,21] 0
y[2,22] 0
y[2,23] 0
y[2,24] 0
y[2,25] 0
y[2,26] 0
y[2,27] 0
y[2,28] 0
y[2,29] 0
y[2,30] 0
y[2,31] 0
y[2,32] 0
y[2,33] 0
y[2,34] 0
y[2,35] 0
y[2,36] 0
y[2,37] 0
y[2,38] 0
y[2,39] 0
y[3,0] 0
y[3,1] 0
y[3,2] 0
y[3,3] 0
y[3,4] 0
y[3,5] 0
y[3,6] 0
y[3,7] 0
y[3,8] 0
y[3,9] 0
y[3,10] 0
y[3,11] 0
y[3,12] 0
y[3,13] 0
y[3,14] 1
y[3,15] 0
y[3,16] 0
y[3,17] 0
y[3,18] 0
y[3,19] 0
y[3,20] 0
y[3,21] 0
y[3,22] 0
y[3,23] 0
y[3,24] 0
y[3,25] 0
y[3,26] 0
y[3,27] 0
y[3,28] 0
y[3,29] 0
y[3,30] 0
y[3,31] 0
y[3,32] 0
y[3,33] 0
y[3,34] 0
y[3,35] 0
y[3,36] 0
y[3,37] 0
y[3,38] 0
y[3,39] 0
y[4,0] 0
y[4,1] 0
y[4,2] 0
y[4,3] 0
y[4,4] 0
y[4,5] 0
y[4,6] 0
y[4,7] 0
y[4,8] 0
y[4,9] 0
y[4,10] 0
y[4,11] 0
y[4,12] 0
y[4,13] 0
y[4,14] 0
y[4,15] 0
y[4,16] 0
y[4,17] 0
y[4,18] 0
y[4,19] 1
y[4,20] 0
y[4,21] 0
y[4,22] 0
y[4,23] 0
y[4,24] 0
y[4,25] 0
y[4,26] 0
y[4,27] 0
y[4,28] 0
y[4,29] 0
y[4,30] 0
y[4,31] 0
y[4,32] 0
y[4,33] 0
y[4,34] 0
y[4,35] 0
y[4,36] 0
y[4,37] 0
y[4,38] 0
y[4,39] 0
y[5,0] 0
y[5,1] 0
y[5,2] 0
y[5,3] 0
y[5,4] 0
y[5,5] 0
y[5,6] 0
y[5,7] 0
y[5,8] 0
y[5,9] 0
y[5,10] 0
y[5,11] 0
y[5,12] 0
y[5,13] 0
y[5,14] 0
y[5,15] 0
y[5,16] 0
y[5,17] 0
y[5,18] 0
y[5,19] 1
y[5,20] 0
y[5,21] 0
y[5,22] 0
y[5,23] 0
y[5,24] 0
y[5,25] 0
y[5,26] 0
y[5,27] 0
y[5,28] 0
y[5,29] 0
y[5,30] 0
y[5,31] 0
y[5,32] 0
y[5,33] 0
y[5,34] 0
y[5,35] 0
y[5,36] 0
y[5,37] 0
y[5,38] 0
y[5,39] 0
y[6,0] 0
y[6,1] 0
y[6,2] 0
y[6,3] 0
y[6,4] 0
y[6,5] 0
y[6,6] 0
y[6,7] 0
y[6,8] 0
y[6,9] 0
y[6,10] 0
y[6,11] 0
y[6,12] 0
y[6,13] 0
y[6,14] 0
y[6,15] 0
y[6,16] 0
y[6,17] 0
y[6,18] 0
y[6,19] 1
y[6,20] 0
y[6,21] 0
y[6,22] 0
y[6,23] 0
y[6,24] 0
y[6,25] 0
y[6,26] 0
y[6,27] 0
y[6,28] 0
y[6,29] 0
y[6,30] 0
y[6,31] 0
y[6,32] 0
y[6,33] 0
y[6,34] 0
y[6,35] 0
y[6,36] 0
y[6,37] 0
y[6,38] 0
y[6,39] 0
y[7,0] 0
y[7,1] 0
y[7,2] 0
y[7,3] 0
y[7,4] 0
y[7,5] 0
y[7,6] 0
y[7,7] 0
y[7,8] 0
y[7,9] 0
y[7,10] 0
y[7,11] 0
y[7,12] 0
y[7,13] 0
y[7,14] 0
y[7,15] 0
y[7,16] 0
y[7,17] 0
y[7,18] 0
y[7,19] 1
y[7,20] 0
y[7,21] 0
y[7,22] 0
y[7,23] 0
y[7,24] 0
y[7,25] 0
y[7,26] 0
y[7,27] 0
y[7,28] 0
y[7,29] 0
y[7,30] 0
y[7,31] 0
y[7,32] 0
y[7,33] 0
y[7,34] 0
y[7,35] 0
y[7,36] 0
y[7,37] 0
y[7,38] 0
y[7,39] 0
y[8,0] 0
y[8,1] 0
y[8,2] 0
y[8,3] 0
y[8,4] 0
y[8,5] 0
y[8,6] 0
y[8,7] 0
y[8,8] 0
y[8,9] 0
y[8,10] 0
y[8,11] 0
y[8,12] 0
y[8,13] 0
y[8,14] 0
y[8,15] 0
y[8,16] 0
y[8,17] 0
y[8,18] 0
y[8,19] 1
y[8,20] 0
y[8,21] 0
y[8,22] 0
y[8,23] 0
y[8,24] 0
y[8,25] 0
y[8,26] 0
y[8,27] 0
y[8,28] 0
y[8,29] 0
y[8,30] 0
y[8,31] 0
y[8,32] 0
y[8,33] 0
y[8,34] 0
y[8,35] 0
y[8,36] 0
y[8,37] 0
y[8,38] 0
y[8,39] 0
y[9,0] 0
y[9,1] 0
y[9,2] 0
y[9,3] 0
y[9,4] 0
y[9,5] 0
y[9,6] 0
y[9,7] 0
y[9,8] 0
y[9,9] 0
y[9,10] 0
y[9,11] 0
y[9,12] 0
y[9,13] 0
y[9,14] 1
y[9,15] 0
y[9,16] 0
y[9,17] 0
y[9,18] 0
y[9,19] 0
y[9,20] 0
y[9,21] 0
y[9,22] 0
y[9,23] 0
y[9,24] 0
y[9,25] 0
y[9,26] 0
y[9,27] 0
y[9,28] 0
y[9,29] 0
y[9,30] 0
y[9,31] 0
y[9,32] 0
y[9,33] 0
y[9,34] 0
y[9,35] 0
y[9,36] 0
y[9,37] 0
y[9,38] 0
y[9,39] 0
y[10,0] 0
y[10,1] 0
y[10,2] 0
y[10,3] 0
y[10,4] 0
y[10,5] 0
y[10,6] 0
y[10,7] 0
y[10,8] 0
y[10,9] 0
y[10,10] 0
y[10,11] 0
y[10,12] 0
y[10,13] 0
y[10,14] 0
y[10,15] 0
y[10,16] 0
y[10,17] 0
y[10,18] 0
y[10,19] 1
y[10,20] 0
y[10,21] 0
y[10,22] 0
y[10,23] 0
y[10,24] 0
y[10,25] 0
y[10,26] 0
y[10,27] 0
y[10,28] 0
y[10,29] 0
y[10,30] 0
y[10,31] 0
y[10,32] 0
y[10,33] 0
y[10,34] 0
y[10,35] 0
y[10,36] 0
y[10,37] 0
y[10,38] 0
y[10,39] 0
y[11,0] 0
y[11,1] 0
y[11,2] 0
y[11,3] 0
y[11,4] 0
y[11,5] 0
y[11,6] 0
y[11,7] 0
y[11,8] 0
y[11,9] 0
y[11,10] 0
y[11,11] 0
y[11,12] 0
y[11,13] 0
y[11,14] 1
y[11,15] 0
y[11,16] 0
y[11,17] 0
y[11,18] 0
y[11,19] 0
y[11,20] 0
y[11,21] 0
y[11,22] 0
y[11,23] 0
y[11,24] 0
y[11,25] 0
y[11,26] 0
y[11,27] 0
y[11,28] 0
y[11,29] 0
y[11,30] 0
y[11,31] 0
y[11,32] 0
y[11,33] 0
y[11,34] 0
y[11,35] 0
y[11,36] 0
y[11,37] 0
y[11,38] 0
y[11,39] 0
y[12,0] 0
y[12,1] 0
y[12,2] 0
y[12,3] 0
y[12,4] 0
y[12,5] 0
y[12,6] 0
y[12,7] 0
y[12,8] 0
y[12,9] 0
y[12,10] 0
y[12,11] 0
y[12,12] 0
y[12,13] 0
y[12,14] 0
y[12,15] 0
y[12,16] 0
y[12,17] 0
y[12,18] 0
y[12,19] 0
y[12,20] 0
y[12,21] 1
y[12,22] 0
y[12,23] 0
y[12,24] 0
y[12,25] 0
y[12,26] 0
y[12,27] 0
y[12,28] 0
y[12,29] 0
y[12,30] 0
y[12,31] 0
y[12,32] 0
y[12,33] 0
y[12,34] 0
y[12,35] 0
y[12,36] 0
y[12,37] 0
y[12,38] 0
y[12,39] 0
y[13,0] 0
y[13,1] 0
y[13,2] 0
y[13,3] 0
y[13,4] 0
y[13,5] 0
y[13,6] 0
y[13,7] 0
y[13,8] 0
y[13,9] 0
y[13,10] 0
y[13,11] 0
y[13,12] 0
y[13,13] 0
y[13,14] 0
y[13,15] 0
y[13,16] 0
y[13,17] 0
y[13,18] 0
y[13,19] 0
y[13,20] 0
y[13,21] 0
y[13,22] 0
y[13,23] 0
y[13,24] 1
y[13,25] 0
y[13,26] 0
y[13,27] 0
y[13,28] 0
y[13,29] 0
y[13,30] 0
y[13,31] 0
y[13,32] 0
y[13,33] 0
y[13,34] 0
y[13,35] 0
y[13,36] 0
y[13,37] 0
y[13,38] 0
y[13,39] 0
y[14,0] 0
y[14,1] 0
y[14,2] 0
y[14,3] 0
y[14,4] 0
y[14,5] 0
y[14,6] 0
y[14,7] 0
y[14,8] 0
y[14,9] 0
y[14,10] 0
y[14,11] 0
y[14,12] 0
y[14,13] 0
y[14,14] 1
y[14,15] 0
y[14,16] 0
y[14,17] 0
y[14,18] 0
y[14,19] 0
y[14,20] 0
y[14,21] 0
y[14,22] 0
y[14,23] 0
y[14,24] 0
y[14,25] 0
y[14,26] 0
y[14,27] 0
y[14,28] 0
y[14,29] 0
y[14,30] 0
y[14,31] 0
y[14,32] 0
y[14,33] 0
y[14,34] 0
y[14,35] 0
y[14,36] 0
y[14,37] 0
y[14,38] 0
y[14,39] 0
y[15,0] 0
y[15,1] 0
y[15,2] 0
y[15,3] 0
y[15,4] 0
y[15,5] 0
y[15,6] 0
y[15,7] 0
y[15,8] 0
y[15,9] 0
y[15,10] 0
y[15,11] 0
y[15,12] 0
y[15,13] 0
y[15,14] 0
y[15,15] 0
y[15,16] 0
y[15,17] 0
y[15,18] 1
y[15,19] 0
y[15,20] 0
y[15,21] 0
y[15,22] 0
y[15,23] 0
y[15,24] 0
y[15,25] 0
y[15,26] 0
y[15,27] 0
y[15,28] 0
y[15,29] 0
y[15,30] 0
y[15,31] 0
y[15,32] 0
y[15,33] 0
y[15,34] 0
y[15,35] 0
y[15,36] 0
y[15,37] 0
y[15,38] 0
y[15,39] 0
y[16,0] 0
y[16,1] 0
y[16,2] 0
y[16,3] 0
y[16,4] 0
y[16,5] 0
y[16,6] 0
y[16,7] 0
y[16,8] 0
y[16,9] 0
y[16,10] 0
y[16,11] 0
y[16,12] 0
y[16,13] 0
y[16,14] 0
y[16,15] 0
y[16,16] 0
y[16,17] 0
y[16,18] 0
y[16,19] 1
y[16,20] 0
y[16,21] 0
y[16,22] 0
y[16,23] 0
y[16,24] 0
y[16,25] 0
y[16,26] 0
y[16,27] 0
y[16,28] 0
y[16,29] 0
y[16,30] 0
y[16,31] 0
y[16,32] 0
y[16,33] 0
y[16,34] 0
y[16,35] 0
y[16,36] 0
y[16,37] 0
y[16,38] 0
y[16,39] 0
y[17,0] 0
y[17,1] 0
y[17,2] 0
y[17,3] 0
y[17,4] 0
y[17,5] 0
y[17,6] 0
y[17,7] 0
y[17,8] 0
y[17,9] 0
y[17,10] 0
y[17,11] 0
y[17,12] 0
y[17,13] 0
y[17,14] 0
y[17,15] 0
y[17,16] 0
y[17,17] 0
y[17,18] 0
y[17,19] 0
y[17,20] 0
y[17,21] 0
y[17,22] 0
y[17,23] 0
y[17,24] 1
y[17,25] 0
y[17,26] 0
y[17,27] 0
y[17,28] 0
y[17,29] 0
y[17,30] 0
y[17,31] 0
y[17,32] 0
y[17,33] 0
y[17,34] 0
y[17,35] 0
y[17,36] 0
y[17,37] 0
y[17,38] 0
y[17,39] 0
y[18,0] 0
y[18,1] 0
y[18,2] 0
y[18,3] 0
y[18,4] 0
y[18,5] 0
y[18,6] 0
y[18,7] 0
y[18,8] 0
y[18,9] 0
y[18,10] 0
y[18,11] 0
y[18,12] 0
y[18,13] 0
y[18,14] 0
y[18,15] 0
y[18,16] 0
y[18,17] 0
y[18,18] 0
y[18,19] 0
y[18,20] 0
y[18,21] 0
y[18,22] 0
y[18,23] 1
y[18,24] 0
y[18,25] 0
y[18,26] 0
y[18,27] 0
y[18,28] 0
y[18,29] 0
y[18,30] 0
y[18,31] 0
y[18,32] 0
y[18,33] 0
y[18,34] 0
y[18,35] 0
y[18,36] 0
y[18,37] 0
y[18,38] 0
y[18,39] 0
y[19,0] 0
y[19,1] 0
y[19,2] 0
y[19,3] 0
y[19,4] 0
y[19,5] 0
y[19,6] 0
y[19,7] 0
y[19,8] 0
y[19,9] 0
y[19,10] 0
y[19,11] 0
y[19,12] 0
y[19,13] 0
y[19,14] 0
y[19,15] 0
y[19,16] 0
y[19,17] 0
y[19,18] 0
y[19,19] 0
y[19,20] 0
y[19,21] 0
y[19,22] 0
y[19,23] 0
y[19,24] 1
y[19,25] 0
y[19,26] 0
y[19,27] 0
y[19,28] 0
y[19,29] 0
y[19,30] 0
y[19,31] 0
y[19,32] 0
y[19,33] 0
y[19,34] 0
y[19,35] 0
y[19,36] 0
y[19,37] 0
y[19,38] 0
y[19,39] 0
cmax 7.6499999992339986e+02
